50
2 1 734
3 1 838
3 2 333
4 1 180
4 2 386
4 3 448
5 1 511
5 2 107
5 3 812
5 4 949
6 1 792
6 2 447
6 3 380
6 4 465
6 5 495
7 1 485
7 2 361
7 3 6
7 4 107
7 5 188
7 6 92
8 1 390
8 2 764
8 3 733
8 4 795
8 5 421
8 6 720
8 7 150
9 1 268
9 2 572
9 3 118
9 4 431
9 5 875
9 6 698
9 7 620
9 8 766
10 1 534
10 2 501
10 3 733
10 4 758
10 5 633
10 6 781
10 7 875
10 8 761
10 9 85
11 1 708
11 2 518
11 3 715
11 4 943
11 5 625
11 6 955
11 7 106
11 8 279
11 9 137
11 10 523
12 1 937
12 2 265
12 3 488
12 4 338
12 5 824
12 6 643
12 7 482
12 8 869
12 9 611
12 10 40
12 11 449
13 1 903
13 2 131
13 3 791
13 4 9
13 5 728
13 6 980
13 7 250
13 8 646
13 9 604
13 10 445
13 11 745
13 12 335
14 1 822
14 2 961
14 3 638
14 4 736
14 5 935
14 6 723
14 7 178
14 8 697
14 9 968
14 10 343
14 11 85
14 12 84
14 13 675
15 1 658
15 2 57
15 3 179
15 4 158
15 5 97
15 6 649
15 7 162
15 8 422
15 9 215
15 10 199
15 11 418
15 12 668
15 13 277
15 14 764
16 1 685
16 2 408
16 3 27
16 4 239
16 5 287
16 6 704
16 7 17
16 8 104
16 9 963
16 10 103
16 11 123
16 12 507
16 13 41
16 14 89
16 15 131
17 1 596
17 2 968
17 3 104
17 4 516
17 5 317
17 6 441
17 7 478
17 8 805
17 9 103
17 10 643
17 11 806
17 12 133
17 13 158
17 14 353
17 15 614
17 16 893
18 1 264
18 2 912
18 3 360
18 4 593
18 5 310
18 6 316
18 7 109
18 8 304
18 9 993
18 10 929
18 11 418
18 12 334
18 13 356
18 14 580
18 15 277
18 16 993
18 17 140
19 1 38
19 2 158
19 3 590
19 4 110
19 5 126
19 6 485
19 7 41
19 8 812
19 9 969
19 10 102
19 11 707
19 12 457
19 13 147
19 14 549
19 15 347
19 16 852
19 17 739
19 18 211
20 1 318
20 2 600
20 3 514
20 4 664
20 5 398
20 6 979
20 7 793
20 8 771
20 9 857
20 10 218
20 11 702
20 12 365
20 13 658
20 14 92
20 15 856
20 16 560
20 17 924
20 18 36
20 19 697
21 1 30
21 2 35
21 3 227
21 4 13
21 5 804
21 6 999
21 7 302
21 8 375
21 9 410
21 10 962
21 11 682
21 12 510
21 13 416
21 14 1
21 15 674
21 16 851
21 17 702
21 18 563
21 19 796
21 20 779
22 1 18
22 2 195
22 3 23
22 4 301
22 5 650
22 6 427
22 7 889
22 8 181
22 9 256
22 10 950
22 11 639
22 12 759
22 13 190
22 14 469
22 15 869
22 16 981
22 17 887
22 18 839
22 19 352
22 20 383
22 21 116
23 1 399
23 2 987
23 3 35
23 4 168
23 5 592
23 6 59
23 7 698
23 8 301
23 9 283
23 10 263
23 11 706
23 12 11
23 13 391
23 14 166
23 15 309
23 16 933
23 17 702
23 18 67
23 19 504
23 20 444
23 21 21
23 22 435
24 1 585
24 2 299
24 3 10
24 4 364
24 5 940
24 6 838
24 7 362
24 8 748
24 9 821
24 10 603
24 11 186
24 12 109
24 13 116
24 14 429
24 15 726
24 16 271
24 17 365
24 18 311
24 19 793
24 20 318
24 21 522
24 22 629
24 23 551
25 1 539
25 2 227
25 3 541
25 4 521
25 5 286
25 6 573
25 7 610
25 8 938
25 9 946
25 10 652
25 11 982
25 12 842
25 13 470
25 14 350
25 15 684
25 16 531
25 17 142
25 18 172
25 19 852
25 20 250
25 21 534
25 22 82
25 23 964
25 24 253
26 1 845
26 2 626
26 3 386
26 4 607
26 5 50
26 6 833
26 7 808
26 8 382
26 9 566
26 10 654
26 11 367
26 12 84
26 13 364
26 14 930
26 15 552
26 16 483
26 17 731
26 18 168
26 19 181
26 20 198
26 21 114
26 22 597
26 23 29
26 24 677
26 25 733
27 1 288
27 2 922
27 3 449
27 4 922
27 5 320
27 6 366
27 7 771
27 8 372
27 9 256
27 10 17
27 11 57
27 12 729
27 13 436
27 14 573
27 15 719
27 16 227
27 17 824
27 18 895
27 19 287
27 20 308
27 21 440
27 22 419
27 23 950
27 24 418
27 25 606
27 26 191
28 1 886
28 2 417
28 3 519
28 4 80
28 5 24
28 6 294
28 7 915
28 8 982
28 9 102
28 10 135
28 11 804
28 12 93
28 13 153
28 14 524
28 15 561
28 16 559
28 17 814
28 18 837
28 19 846
28 20 73
28 21 58
28 22 96
28 23 131
28 24 235
28 25 255
28 26 345
28 27 820
29 1 734
29 2 677
29 3 731
29 4 235
29 5 688
29 6 826
29 7 729
29 8 945
29 9 681
29 10 222
29 11 207
29 12 228
29 13 340
29 14 519
29 15 273
29 16 629
29 17 496
29 18 85
29 19 88
29 20 904
29 21 267
29 22 429
29 23 99
29 24 834
29 25 606
29 26 87
29 27 369
29 28 663
30 1 152
30 2 869
30 3 956
30 4 174
30 5 435
30 6 577
30 7 529
30 8 649
30 9 762
30 10 580
30 11 660
30 12 220
30 13 344
30 14 880
30 15 490
30 16 363
30 17 475
30 18 536
30 19 703
30 20 540
30 21 853
30 22 591
30 23 998
30 24 245
30 25 325
30 26 856
30 27 517
30 28 954
30 29 653
31 1 217
31 2 897
31 3 736
31 4 98
31 5 302
31 6 902
31 7 522
31 8 896
31 9 669
31 10 828
31 11 303
31 12 950
31 13 881
31 14 109
31 15 738
31 16 277
31 17 94
31 18 832
31 19 945
31 20 71
31 21 45
31 22 89
31 23 464
31 24 397
31 25 565
31 26 364
31 27 664
31 28 878
31 29 991
31 30 397
32 1 75
32 2 911
32 3 114
32 4 213
32 5 418
32 6 244
32 7 545
32 8 259
32 9 331
32 10 968
32 11 608
32 12 840
32 13 38
32 14 261
32 15 165
32 16 299
32 17 475
32 18 423
32 19 981
32 20 622
32 21 621
32 22 43
32 23 523
32 24 427
32 25 43
32 26 349
32 27 308
32 28 506
32 29 898
32 30 61
32 31 195
33 1 383
33 2 910
33 3 323
33 4 230
33 5 569
33 6 69
33 7 510
33 8 944
33 9 447
33 10 49
33 11 1
33 12 220
33 13 1
33 14 618
33 15 215
33 16 106
33 17 804
33 18 517
33 19 482
33 20 211
33 21 982
33 22 594
33 23 574
33 24 564
33 25 72
33 26 162
33 27 950
33 28 53
33 29 982
33 30 868
33 31 34
33 32 833
34 1 490
34 2 553
34 3 105
34 4 331
34 5 964
34 6 864
34 7 596
34 8 727
34 9 266
34 10 633
34 11 882
34 12 29
34 13 1000
34 14 256
34 15 869
34 16 141
34 17 583
34 18 596
34 19 948
34 20 534
34 21 795
34 22 148
34 23 142
34 24 413
34 25 771
34 26 483
34 27 490
34 28 497
34 29 623
34 30 216
34 31 10
34 32 800
34 33 129
35 1 4
35 2 787
35 3 36
35 4 177
35 5 331
35 6 18
35 7 537
35 8 919
35 9 81
35 10 65
35 11 790
35 12 816
35 13 151
35 14 850
35 15 5
35 16 12
35 17 615
35 18 140
35 19 315
35 20 740
35 21 184
35 22 552
35 23 494
35 24 696
35 25 974
35 26 343
35 27 336
35 28 562
35 29 828
35 30 288
35 31 54
35 32 146
35 33 704
35 34 234
36 1 340
36 2 794
36 3 879
36 4 129
36 5 961
36 6 52
36 7 965
36 8 599
36 9 20
36 10 744
36 11 15
36 12 387
36 13 264
36 14 912
36 15 186
36 16 229
36 17 63
36 18 324
36 19 752
36 20 969
36 21 942
36 22 472
36 23 443
36 24 992
36 25 793
36 26 265
36 27 374
36 28 283
36 29 149
36 30 846
36 31 67
36 32 683
36 33 150
36 34 245
36 35 328
37 1 162
37 2 66
37 3 780
37 4 961
37 5 162
37 6 531
37 7 428
37 8 604
37 9 340
37 10 842
37 11 582
37 12 154
37 13 276
37 14 966
37 15 906
37 16 578
37 17 949
37 18 136
37 19 211
37 20 67
37 21 69
37 22 149
37 23 561
37 24 831
37 25 559
37 26 764
37 27 32
37 28 6
37 29 774
37 30 814
37 31 833
37 32 443
37 33 254
37 34 926
37 35 719
37 36 380
38 1 93
38 2 959
38 3 893
38 4 252
38 5 234
38 6 553
38 7 832
38 8 136
38 9 256
38 10 417
38 11 737
38 12 597
38 13 467
38 14 229
38 15 543
38 16 923
38 17 377
38 18 278
38 19 679
38 20 23
38 21 860
38 22 232
38 23 27
38 24 470
38 25 579
38 26 655
38 27 762
38 28 465
38 29 477
38 30 155
38 31 18
38 32 699
38 33 421
38 34 295
38 35 576
38 36 402
38 37 289
39 1 635
39 2 12
39 3 47
39 4 97
39 5 548
39 6 987
39 7 487
39 8 953
39 9 678
39 10 643
39 11 522
39 12 927
39 13 174
39 14 272
39 15 143
39 16 138
39 17 78
39 18 715
39 19 974
39 20 634
39 21 498
39 22 174
39 23 639
39 24 875
39 25 437
39 26 390
39 27 94
39 28 897
39 29 419
39 30 357
39 31 135
39 32 449
39 33 281
39 34 42
39 35 631
39 36 702
39 37 763
39 38 775
40 1 197
40 2 320
40 3 778
40 4 269
40 5 336
40 6 970
40 7 483
40 8 454
40 9 293
40 10 589
40 11 544
40 12 563
40 13 126
40 14 971
40 15 205
40 16 177
40 17 752
40 18 489
40 19 58
40 20 143
40 21 968
40 22 26
40 23 628
40 24 589
40 25 702
40 26 417
40 27 166
40 28 449
40 29 995
40 30 989
40 31 266
40 32 205
40 33 479
40 34 996
40 35 189
40 36 789
40 37 335
40 38 23
40 39 37
41 1 826
41 2 7
41 3 681
41 4 123
41 5 660
41 6 163
41 7 150
41 8 206
41 9 874
41 10 654
41 11 392
41 12 439
41 13 213
41 14 487
41 15 97
41 16 170
41 17 132
41 18 57
41 19 684
41 20 984
41 21 389
41 22 141
41 23 917
41 24 592
41 25 390
41 26 420
41 27 955
41 28 474
41 29 213
41 30 512
41 31 905
41 32 382
41 33 512
41 34 791
41 35 186
41 36 90
41 37 744
41 38 484
41 39 289
41 40 28
42 1 400
42 2 801
42 3 718
42 4 664
42 5 192
42 6 108
42 7 217
42 8 774
42 9 381
42 10 386
42 11 563
42 12 973
42 13 689
42 14 493
42 15 520
42 16 143
42 17 492
42 18 972
42 19 751
42 20 624
42 21 223
42 22 418
42 23 766
42 24 311
42 25 189
42 26 645
42 27 213
42 28 33
42 29 234
42 30 172
42 31 93
42 32 827
42 33 949
42 34 776
42 35 696
42 36 14
42 37 362
42 38 108
42 39 338
42 40 180
42 41 300
43 1 639
43 2 215
43 3 454
43 4 869
43 5 430
43 6 936
43 7 714
43 8 746
43 9 486
43 10 545
43 11 590
43 12 209
43 13 694
43 14 119
43 15 396
43 16 115
43 17 601
43 18 236
43 19 384
43 20 260
43 21 536
43 22 891
43 23 921
43 24 806
43 25 827
43 26 677
43 27 496
43 28 725
43 29 122
43 30 291
43 31 672
43 32 452
43 33 63
43 34 686
43 35 354
43 36 180
43 37 821
43 38 439
43 39 28
43 40 495
43 41 238
43 42 138
44 1 818
44 2 293
44 3 598
44 4 872
44 5 517
44 6 166
44 7 253
44 8 128
44 9 951
44 10 699
44 11 635
44 12 662
44 13 319
44 14 378
44 15 395
44 16 171
44 17 377
44 18 34
44 19 667
44 20 817
44 21 609
44 22 30
44 23 731
44 24 933
44 25 743
44 26 628
44 27 550
44 28 471
44 29 263
44 30 219
44 31 968
44 32 3
44 33 779
44 34 367
44 35 542
44 36 357
44 37 395
44 38 861
44 39 285
44 40 190
44 41 449
44 42 201
44 43 813
45 1 68
45 2 253
45 3 228
45 4 646
45 5 872
45 6 712
45 7 826
45 8 680
45 9 598
45 10 957
45 11 891
45 12 72
45 13 861
45 14 364
45 15 15
45 16 52
45 17 673
45 18 588
45 19 569
45 20 401
45 21 315
45 22 495
45 23 120
45 24 616
45 25 364
45 26 121
45 27 398
45 28 8
45 29 186
45 30 30
45 31 222
45 32 229
45 33 487
45 34 710
45 35 103
45 36 4
45 37 695
45 38 876
45 39 451
45 40 42
45 41 289
45 42 817
45 43 581
45 44 408
46 1 348
46 2 162
46 3 961
46 4 843
46 5 916
46 6 691
46 7 395
46 8 790
46 9 986
46 10 79
46 11 71
46 12 129
46 13 168
46 14 691
46 15 683
46 16 884
46 17 370
46 18 817
46 19 55
46 20 388
46 21 40
46 22 964
46 23 965
46 24 678
46 25 803
46 26 100
46 27 104
46 28 115
46 29 547
46 30 962
46 31 372
46 32 478
46 33 281
46 34 818
46 35 941
46 36 50
46 37 332
46 38 312
46 39 783
46 40 437
46 41 688
46 42 259
46 43 601
46 44 130
46 45 567
47 1 534
47 2 363
47 3 63
47 4 519
47 5 431
47 6 864
47 7 671
47 8 628
47 9 103
47 10 26
47 11 199
47 12 640
47 13 994
47 14 858
47 15 273
47 16 64
47 17 360
47 18 294
47 19 975
47 20 587
47 21 280
47 22 313
47 23 943
47 24 347
47 25 774
47 26 76
47 27 231
47 28 895
47 29 913
47 30 981
47 31 946
47 32 907
47 33 46
47 34 854
47 35 913
47 36 964
47 37 527
47 38 711
47 39 870
47 40 959
47 41 566
47 42 774
47 43 946
47 44 962
47 45 86
47 46 693
48 1 428
48 2 599
48 3 715
48 4 159
48 5 74
48 6 260
48 7 291
48 8 352
48 9 467
48 10 707
48 11 512
48 12 917
48 13 175
48 14 904
48 15 598
48 16 406
48 17 710
48 18 117
48 19 116
48 20 376
48 21 549
48 22 623
48 23 323
48 24 590
48 25 717
48 26 578
48 27 670
48 28 11
48 29 680
48 30 869
48 31 347
48 32 528
48 33 568
48 34 8
48 35 989
48 36 600
48 37 964
48 38 397
48 39 925
48 40 278
48 41 772
48 42 518
48 43 608
48 44 273
48 45 920
48 46 874
48 47 86
49 1 28
49 2 895
49 3 736
49 4 666
49 5 981
49 6 368
49 7 29
49 8 129
49 9 456
49 10 412
49 11 905
49 12 142
49 13 878
49 14 74
49 15 835
49 16 727
49 17 251
49 18 282
49 19 274
49 20 940
49 21 99
49 22 379
49 23 226
49 24 115
49 25 291
49 26 745
49 27 269
49 28 319
49 29 466
49 30 296
49 31 852
49 32 887
49 33 982
49 34 844
49 35 950
49 36 172
49 37 589
49 38 575
49 39 364
49 40 884
49 41 261
49 42 163
49 43 259
49 44 653
49 45 887
49 46 245
49 47 740
49 48 684
